NAME : brazil58
TYPE : OP
DIMENSION : 58
COST_LIMIT : 12698
ROUTE_NODES : 41
ROUTE_SCORE : 2218
ROUTE_COST : 12688
NODE_SEQUENCE_SECTION
1
13
32
25
40
30
24
57
12
27
43
49
47
51
52
10
35
3
29
33
45
37
14
28
6
26
17
36
21
11
39
41
2
54
55
22
8
5
23
44
18
-1
DEPOT_SECTION
1
-1
EOF
